raid.fzn
int: X_INTRODUCED_1_ = 54;
solve  maximize X_INTRODUCED_1_;
